
Log started (V11.0.0) Tue May 13 12:10:38 2008

Tried aggregator 1 time.
Reduced MIP has 110 rows, 1001 columns, and 2010 nonzeros.
Presolve time =    0.02 sec.
Clique table members: 100.
MIP emphasis: balance optimality and feasibility.
MIP search method: dynamic search.
Parallel mode: none, using 1 thread.
Root relaxation solution time =    0.01 sec.

        Nodes                                         Cuts/
   Node  Left     Objective  IInf  Best Integer     Best Node    ItCnt     Gap

*     0+    0                        11068.0000     1013.1825      166   90.85%
*     0+    0                         1023.0000     1013.1825      166    0.96%
      0     0     1014.0000    13     1023.0000      Fract: 6      177    0.88%
      0     0     1014.0000    18     1023.0000     1014.0000      189    0.88%
      0     0     1014.0000    18     1023.0000     Covers: 2      196    0.88%
*     0+    0                         1022.0000     1014.0000      196    0.78%
      0     2     1014.0000    18     1022.0000     1014.0000      196    0.78%
    100    52     1017.4612    19     1022.0000     1014.0000     2517    0.78%
    200    88    infeasible           1022.0000     1014.0000     5525    0.78%
    300   161     1015.0000    19     1022.0000     1014.0000     7791    0.78%
    400   224     1016.0000    15     1022.0000     1014.0000    10769    0.78%
*   491+  241                         1019.0000     1014.0000    12748    0.49%
*   493+  160                         1018.0000     1015.0000    13787    0.29%
    500   164     1015.0000    19     1018.0000     1015.0000    13851    0.29%
    600   161     1017.0000    17     1018.0000     1015.0000    16225    0.29%
    700   141        cutoff           1018.0000     1015.0000    19332    0.29%
    800   165     1017.0000    13     1018.0000     1015.0000    21643    0.29%
    900   212     1017.0000    11     1018.0000     1015.0000    25851    0.29%
   1000   276     1016.0000    18     1018.0000     1015.0000    28026    0.29%
Elapsed time =   4.48 sec. (tree size =  0.13 MB, solutions = 5)
   1100   347     1016.0000    20     1018.0000     1015.0000    30805    0.29%
*  1193+  189                         1017.0000     1015.0000    33169    0.20%
   1200   198     1015.0000    14     1017.0000     1015.0000    33284    0.20%
   1300   273     1015.2192    35     1017.0000     1015.0000    36580    0.20%
   1400   330     1015.0000    20     1017.0000     1015.0000    39898    0.20%
   1500   387    infeasible           1017.0000     1015.0000    43168    0.20%
   1600   422        cutoff           1017.0000     1015.0000    50184    0.20%
*  1663+   95                         1016.0000     1015.0000    57191    0.10%
   1700    77     1015.0000    35     1016.0000     1015.0000    67004    0.10%
   1800   107    infeasible           1016.0000     1015.0000    86601    0.10%
   1900    47     1015.0000    39     1016.0000     1015.0000   119873    0.10%
   2000    61     1015.0000    51     1016.0000     1015.0000   150517    0.10%
Elapsed time =  18.34 sec. (tree size =  0.03 MB, solutions = 7)
   2100    34     1015.0000    76     1016.0000     1015.0000   187645    0.10%
   2200    14    infeasible           1016.0000     1015.0000   231991    0.10%

Cover cuts applied:  280
Mixed integer rounding cuts applied:  15
Gomory fractional cuts applied:  11

Solution pool: 7 solutions saved.

MIP - Integer optimal solution:  Objective = 1.0160000000e+003
Solution time =   32.33 sec.  Iterations = 242690  Nodes = 2221


Incumbent solution
Variable Name           Solution Value
Cmax                       1016.000000
X_1_10                        1.000000
X_2_6                         1.000000
X_3_5                         1.000000
X_4_6                         1.000000
X_5_9                         1.000000
X_6_5                         1.000000
X_7_1                         1.000000
X_8_6                         1.000000
X_9_3                         1.000000
X_10_5                        1.000000
X_11_10                       1.000000
X_12_10                       1.000000
X_13_10                       1.000000
X_14_4                        1.000000
X_15_1                        1.000000
X_16_10                       1.000000
X_17_1                        1.000000
X_18_7                        1.000000
X_19_4                        1.000000
X_20_10                       1.000000
X_21_9                        1.000000
X_22_9                        1.000000
X_23_6                        1.000000
X_24_6                        1.000000
X_25_6                        1.000000
X_26_8                        1.000000
X_27_4                        1.000000
X_28_2                        1.000000
X_29_1                        1.000000
X_30_4                        1.000000
X_30_7                       -0.000000
X_31_7                        1.000000
X_32_2                        1.000000
X_33_10                       1.000000
X_34_2                        1.000000
X_35_2                        1.000000
X_35_10                      -0.000000
X_36_5                        1.000000
X_37_4                        1.000000
X_37_10                       0.000000
X_38_1                        1.000000
X_38_7                        0.000000
X_38_9                        0.000000
X_38_10                      -0.000000
X_39_3                        1.000000
X_40_9                        1.000000
X_41_4                        1.000000
X_42_2                        1.000000
X_43_3                        1.000000
X_44_7                        1.000000
X_45_2                        1.000000
X_46_3                        1.000000
X_47_8                        1.000000
X_48_5                        1.000000
X_49_3                        1.000000
X_50_3                        1.000000
X_51_2                        1.000000
X_52_5                        1.000000
X_53_8                        1.000000
X_54_8                        1.000000
X_55_8                        1.000000
X_56_10                       1.000000
X_57_6                        1.000000
X_58_1                        1.000000
X_59_7                        1.000000
X_60_6                        1.000000
X_61_9                        1.000000
X_62_4                        1.000000
X_63_9                        1.000000
X_64_1                        1.000000
X_65_9                        1.000000
X_66_5                        1.000000
X_66_10                       0.000000
X_67_3                        1.000000
X_68_7                        1.000000
X_69_8                        1.000000
X_69_9                       -0.000000
X_70_7                        1.000000
X_71_3                        1.000000
X_72_2                        1.000000
X_73_8                        1.000000
X_74_1                        1.000000
X_75_4                        1.000000
X_76_6                        1.000000
X_77_5                        1.000000
X_77_7                        0.000000
X_78_10                       1.000000
X_79_6                        1.000000
X_80_9                        1.000000
X_81_8                        1.000000
X_82_8                        1.000000
X_83_10                       1.000000
X_84_2                        1.000000
X_85_3                        1.000000
X_86_8                        1.000000
X_87_5                        1.000000
X_88_4                        1.000000
X_89_7                        1.000000
X_90_5                        1.000000
X_91_7                        1.000000
X_92_3                        1.000000
X_93_4                        1.000000
X_93_9                       -0.000000
X_94_7                        1.000000
X_95_1                        1.000000
X_96_9                        1.000000
X_97_9                        1.000000
X_98_1                        1.000000
X_99_7                        1.000000
X_100_2                       1.000000
All other variables in the range 1-1001 are 0.
